NAME : 23.75625.tour
COMMENT : Length = 75625
COMMENT : Found by LKH-3 [Keld Helsgaun] Thu Jun 19 18:16:38 2025
TYPE : TOUR
DIMENSION : 100
TOUR_SECTION
1
6
15
74
22
65
52
67
28
80
59
11
26
95
72
85
66
21
18
24
100
55
37
45
36
86
9
40
57
97
29
68
63
4
50
78
16
31
30
58
20
84
51
98
25
27
19
61
23
49
7
17
87
83
70
71
38
43
99
89
75
13
96
88
91
47
44
8
79
33
12
64
42
92
10
82
2
94
48
35
69
90
54
77
34
93
56
5
73
81
32
53
41
3
60
46
14
39
62
76
-1
EOF
